outputs/case_439.model.txt
reorganization_petition_permitted = False
stability_fund_cooperated = False
improvement_after_guidance = False
net_worth_ratio = 1
improvement_plan_overdue = True
supervisory_consent_for_other_major_financial = False
net_worth = -10
significant_financial_deterioration = False
supervisory_consent_for_payment = False
extension_or_resubmission_ordered = False
risk_to_insured_interest = False
inspection_provisions_applied = False
unable_to_pay_debt = False
unable_to_fulfill_contract = False
supervisory_measures_implemented = True
consolidated_reorganization_petition_filed = False
capital_adequacy_ratio = 40
improvement_plan_submitted_and_completed = False
regulations_issued = True
supervisory_consent_for_contract = False
not_subject_to_corp_law_temp_manager = False
improvement_plan_approved_by_authority = False
accelerated_loss_or_net_worth_deterioration = False
not_subject_to_gov_procurement_law = False
supervisory_personnel_commissioned = False
financial_or_business_deterioration = False
supervisory_measures_executed = True
improvement_plan_approved = False
capital_level = 4
penalty = False
capital_level_insufficient = False
accelerated_deterioration_or_no_improvement = True
regulations_issued_by_authority = True
improvement_plan_completed = False
capital_level_significantly_insufficient = False
supervisory_consent_required_for_major_actions = False
reorganization_petition_exception = False
stability_fund_cooperation = False
capital_level_severely_insufficient = True
temporary_manager_law_not_applicable = False
capital_level_adequate = False
major_event_extension_granted = False
consolidated_reorganization_petition_allowed = False
government_procurement_law_not_applicable = False
supervisory_measures_required = True
inspection_provisions_apply = False
capital_level_none = False
supervisory_personnel_appointed = False